DIMENSION: 9
EDGE_WEIGHT_TYPE: EXPLICIT
EDGE_WEIGHT_FORMAT: FULL_MATRIX
EDGE_WEIGHT_SECTION:
32767 32767 36 32767 32767 30 32767 32767 32767 
32767 32767 50 32767 32767 32767 32767 49 32767 
36 50 32767 92 32767 91 32767 94 32767 
32767 32767 92 32767 32767 32767 32767 32767 32767 
32767 32767 32767 32767 32767 32767 32767 32767 32767 
30 32767 91 32767 32767 32767 32767 1 32767 
32767 32767 32767 32767 32767 32767 32767 32767 32767 
32767 49 94 32767 32767 1 32767 32767 86 
32767 32767 32767 32767 32767 32767 32767 86 32767 
EOF